# Solution for model GasLib-40
# Objective value = 3.8254815851191310e+01
loadshed[innode_1] 0
loadshed[innode_2] 0
loadshed[innode_3] 0
loadshed[innode_4] 0
loadshed[innode_5] 0
loadshed[innode_6] 0
loadshed[innode_7] 0
loadshed[innode_8] 0
loadshed[source_1] -1.1944170026456491e-01
loadshed[source_2] 4.2272216623228664e-02
loadshed[source_3] 3.1915030870483996e-01
loadshed[sink_1] 0
loadshed[sink_2] 0
loadshed[sink_3] 0
loadshed[sink_4] 0
loadshed[sink_5] 0
loadshed[sink_6] 0
loadshed[sink_7] 0
loadshed[sink_8] 0
loadshed[sink_9] 0
loadshed[sink_10] 0
loadshed[sink_11] 0
loadshed[sink_12] 1
loadshed[sink_13] 0
loadshed[sink_14] 0
loadshed[sink_15] 0
loadshed[sink_16] 0
loadshed[sink_17] 0
loadshed[sink_18] 0
loadshed[sink_19] 0
loadshed[sink_20] 0
loadshed[sink_21] 1
loadshed[sink_22] 0
loadshed[sink_23] 0
loadshed[sink_24] 3.3914797561424531e-01
loadshed[sink_25] 0
loadshed[sink_26] 0
loadshed[sink_27] 0
loadshed[sink_28] 0
loadshed[sink_29] 0
flow[source_1,sink_3] 1.7697284935085293e+02
flow[innode_1,sink_16] 1.6354166666666970e+01
flow[innode_6,sink_13] 6.8434498449010874e+00
flow[sink_13,sink_14] -9.51071682176558
flow[sink_14,sink_10] -2.5864883488432248e+01
flow[sink_25,sink_26] 1.3405658202471977e+02
flow[sink_26,sink_9] 3.2708333333334551e+01
flow[sink_9,sink_18] 1.6354166666667879e+01
flow[sink_26,sink_4] 8.4994082024718580e+01
flow[sink_4,sink_20] 0
flow[sink_18,sink_6] 0
flow[sink_25,innode_8] -1.4426451601751657e+02
flow[sink_6,sink_7] -4.9062500000000313e+01
flow[sink_6,sink_22] 3.2708333333333641e+01
flow[sink_7,sink_24] 1.0807684148808699e+01
flow[sink_22,sink_1] 1.6354166666666970e+01
flow[sink_24,sink_21] 0
flow[sink_21,sink_12] 0
flow[sink_7,sink_5] -7.6224350815475674e+01
flow[sink_5,sink_17] -9.2578517482142345e+01
flow[sink_17,sink_4] -6.8639915358051880e+01
flow[sink_17,sink_8] -4.0292768790757194e+01
flow[sink_3,sink_23] 16.3541666666697
flow[sink_8,sink_20] -5.6646935457423865e+01
flow[sink_25,sink_20] 7.3001102124090693e+01
flow[sink_25,sink_15] -8.5990784642861286e+01
flow[sink_15,sink_29] -5.7708662417545327e+01
flow[sink_29,sink_28] 1.6354166666667879e+01
flow[sink_29,sink_2] 6.0990455558649295e+01
flow[sink_2,sink_15] 4.4636288891982630e+01
flow[sink_29,innode_7] -1.5140745130952916e+02
flow[innode_4,sink_19] 0
flow[sink_19,innode_3] 3.6564246874041324e+01
flow[innode_4,innode_5] 1.0763571682176610e+02
flow[sink_27,innode_5] -1.0763571682176610e+02
flow[sink_27,sink_19] 9.1281550155099424e+01
flow[sink_10,sink_11] 3.2708333333333641e+01
flow[sink_10,innode_2] -3.8363136614391230e+01
flow[sink_10,innode_3] -3.6564246874041324e+01
flow[innode_6,sink_25] -6.8434498449010874e+00
flow[sink_11,innode_1] 1.6354166666666970e+01
flow[sink_19,innode_2] 3.8363136614391230e+01
flow[source_3,innode_4] 1.0763571682176610e+02
flow[source_2,innode_7] 1.5140745130952916e+02
flow[sink_3,innode_8] 1.4426451601751657e+02
pressure[innode_1] 7.5906834807770792e+01
pressure[innode_2] 7.8086186330388387e+01
pressure[innode_3] 7.8005218946137632e+01
pressure[innode_4] 81.01325
pressure[innode_5] 8.0939212478321068e+01
pressure[innode_6] 74.8558700019059
pressure[innode_7] 81.01325
pressure[innode_8] 80.421697370699
pressure[source_1] 81.01325
pressure[source_2] 81.01325
pressure[source_3] 81.01325
pressure[sink_1] 1.0612654269367484e+01
pressure[sink_2] 7.5418736744274611e+01
pressure[sink_3] 80.421697370699
pressure[sink_4] 5.4607976093842559e+01
pressure[sink_5] 4.5088354486307480e+01
pressure[sink_6] 1.2713731879754857e+01
pressure[sink_7] 1.3387243057454988e+01
pressure[sink_8] 5.3505135706496986e+01
pressure[sink_9] 63.456665489085
pressure[sink_10] 7.6058536115374338e+01
pressure[sink_11] 7.5906834807770792e+01
pressure[sink_12] 1.01325
pressure[sink_13] 7.4818143206557664e+01
pressure[sink_14] 7.4835163444444163e+01
pressure[sink_15] 75.2730090987219
pressure[sink_16] 7.4885184972953112e+01
pressure[sink_17] 5.1984784861982462e+01
pressure[sink_18] 62.8649229952853
pressure[sink_19] 7.8086186330388387e+01
pressure[sink_20] 5.7452630466672410e+01
pressure[sink_21] 1.01325
pressure[sink_22] 1.1676423411722494e+01
pressure[sink_23] 80.2569793590392
pressure[sink_24] 1.01325
pressure[sink_25] 74.8558700019059
pressure[sink_26] 65.4143436569696
pressure[sink_27] 80.0460349181197
pressure[sink_28] 7.6668411541861971e+01
pressure[sink_29] 7.6963693815479147e+01
interdiction[source_1,sink_3] 0
interdiction[innode_1,sink_16] 0
interdiction[innode_6,sink_13] 0
interdiction[sink_13,sink_14] 0
interdiction[sink_14,sink_10] 0
interdiction[sink_25,sink_26] 0
interdiction[sink_26,sink_9] 0
interdiction[sink_9,sink_18] 0
interdiction[sink_26,sink_4] 0
interdiction[sink_4,sink_20] 1
interdiction[sink_18,sink_6] 1
interdiction[sink_25,innode_8] 0
interdiction[sink_6,sink_7] 0
interdiction[sink_6,sink_22] 0
interdiction[sink_7,sink_24] 0
interdiction[sink_22,sink_1] 0
interdiction[sink_24,sink_21] 0
interdiction[sink_21,sink_12] 0
interdiction[sink_7,sink_5] 0
interdiction[sink_5,sink_17] 0
interdiction[sink_17,sink_4] 0
interdiction[sink_17,sink_8] 0
interdiction[sink_3,sink_23] 0
interdiction[sink_8,sink_20] 0
interdiction[sink_25,sink_20] 0
interdiction[sink_25,sink_15] 0
interdiction[sink_15,sink_29] 0
interdiction[sink_29,sink_28] 0
interdiction[sink_29,sink_2] 0
interdiction[sink_2,sink_15] 0
interdiction[sink_29,innode_7] 0
interdiction[innode_4,sink_19] 1
interdiction[sink_19,innode_3] 0
interdiction[innode_4,innode_5] 0
interdiction[sink_27,innode_5] 0
interdiction[sink_27,sink_19] 0
interdiction[sink_10,sink_11] 0
interdiction[sink_10,innode_2] 0
interdiction[sink_10,innode_3] 0
interdiction[innode_6,sink_25] 0
interdiction[sink_11,innode_1] 0
interdiction[sink_19,innode_2] 0
interdiction[source_3,innode_4] 0
interdiction[source_2,innode_7] 0
interdiction[sink_3,innode_8] 0
WCcheckFlow[source_1,sink_3] 39
WCcheckFlow[innode_1,sink_16] 1
WCcheckFlow[innode_6,sink_13] 13
WCcheckFlow[sink_13,sink_14] 12
WCcheckFlow[sink_14,sink_10] 11
WCcheckFlow[sink_25,sink_26] 15
WCcheckFlow[sink_26,sink_9] 2
WCcheckFlow[sink_9,sink_18] 1
WCcheckFlow[sink_26,sink_4] 12
WCcheckFlow[sink_4,sink_20] 0
WCcheckFlow[sink_18,sink_6] 0
WCcheckFlow[sink_25,innode_8] -36
WCcheckFlow[sink_6,sink_7] -3
WCcheckFlow[sink_6,sink_22] 2
WCcheckFlow[sink_7,sink_24] 3
WCcheckFlow[sink_22,sink_1] 1
WCcheckFlow[sink_24,sink_21] 2
WCcheckFlow[sink_21,sink_12] 1
WCcheckFlow[sink_7,sink_5] -7
WCcheckFlow[sink_5,sink_17] -8
WCcheckFlow[sink_17,sink_4] -11
WCcheckFlow[sink_17,sink_8] 2
WCcheckFlow[sink_3,sink_23] 1
WCcheckFlow[sink_8,sink_20] 1
WCcheckFlow[sink_25,sink_20] 0
WCcheckFlow[sink_25,sink_15] 6
WCcheckFlow[sink_15,sink_29] 5
WCcheckFlow[sink_29,sink_28] 1
WCcheckFlow[sink_29,sink_2] 1
WCcheckFlow[sink_2,sink_15] 0
WCcheckFlow[sink_29,innode_7] 2
WCcheckFlow[innode_4,sink_19] 0
WCcheckFlow[sink_19,innode_3] -5
WCcheckFlow[innode_4,innode_5] -2
WCcheckFlow[sink_27,innode_5] 3
WCcheckFlow[sink_27,sink_19] -4
WCcheckFlow[sink_10,sink_11] 3
WCcheckFlow[sink_10,innode_2] 1
WCcheckFlow[sink_10,innode_3] 6
WCcheckFlow[innode_6,sink_25] -14
WCcheckFlow[sink_11,innode_1] 2
WCcheckFlow[sink_19,innode_2] 0
WCcheckFlow[source_3,innode_4] -1
WCcheckFlow[source_2,innode_7] -1
WCcheckFlow[sink_3,innode_8] 37
